NAME: Random_65_4
ELLAPSED_TIME_(ms): 480
TOUR_SIZE: 1266
TOUR_SECTION
0
1
63
8
57
52
35
59
20
6
49
4
56
16
44
41
45
61
62
22
21
47
42
14
33
3
28
18
19
17
58
40
30
9
10
54
11
60
12
55
15
23
43
48
32
50
13
64
34
27
53
36
29
7
51
25
24
37
5
38
2
26
31
46
39
0
EOF
